33114.9
28164.4
21663.6
18216.2
17589.9
14026.3
11446.6
11446.6
10938.1
9759.48
8004.28
7788.12
7112
6915.17
6572.68
6572.68
6545.7
6545.7
6509.53
6473.01
6397.35
6397.35
6386.44
6334.95
6334.95
6231.84
6231.84
6231.84
6231.84
6231.84
6231.84
6231.84
6231.84
6231.84
6231.84
6231.84
6086.8
6086.8
6086.8
6086.8
6086.8
6086.8
6086.8
6086.8
6086.8
6086.8
6086.8
6086.8
6086.8
6086.8
6086.8
6086.8
6086.8
6086.8
6086.8
6086.8
6086.8
6086.8
6086.8
6086.8
6086.8
6086.8
6086.8
6086.8
6086.8
6086.8
6086.8
6086.8
6086.8
6086.8
6086.8
6086.8
6086.8
6086.8
6086.8
6086.8
6086.8
6086.8
6086.8
6086.8
6086.8
6086.8
6086.8
6086.8
6086.8
6086.8
6086.8
6086.8
6086.8
6086.8
6086.8
6086.8
6086.8
6086.8
6086.8
6086.8
6086.8
6086.8
6086.8
6086.8
